p edge 2764 2704
e 1 2
e 1 3
e 1 4
e 1 5
e 1 6
e 1 7
e 1 8
e 1 9
e 1 10
e 1 11
e 1 12
e 1 13
e 1 14
e 1 15
e 1 16
e 1 17
e 1 18
e 1 19
e 1 20
e 1 21
e 1 22
e 23 24
e 23 25
e 23 26
e 23 27
e 23 28
e 23 29
e 23 30
e 23 31
e 23 32
e 23 33
e 23 34
e 23 35
e 23 36
e 23 37
e 23 38
e 23 39
e 23 40
e 23 41
e 23 42
e 23 43
e 23 44
e 23 45
e 23 46
e 23 47
e 23 48
e 23 49
e 23 50
e 23 51
e 23 52
e 23 53
e 23 54
e 23 55
e 23 56
e 23 57
e 23 58
e 23 59
e 23 60
e 23 61
e 23 62
e 23 63
e 23 64
e 23 65
e 23 66
e 23 67
e 68 69
e 68 70
e 68 71
e 68 72
e 68 73
e 68 74
e 68 75
e 68 76
e 68 77
e 68 78
e 68 79
e 68 80
e 68 81
e 68 82
e 68 83
e 68 84
e 68 85
e 68 86
e 68 87
e 68 88
e 68 89
e 68 90
e 68 91
e 68 92
e 68 93
e 68 94
e 68 95
e 68 96
e 68 97
e 68 98
e 68 99
e 68 100
e 68 101
e 68 102
e 68 103
e 68 104
e 68 105
e 68 106
e 68 107
e 68 108
e 68 109
e 68 110
e 68 111
e 68 112
e 68 113
e 68 114
e 68 115
e 68 116
e 68 117
e 68 118
e 68 119
e 68 120
e 68 121
e 68 122
e 68 123
e 68 124
e 68 125
e 68 126
e 127 128
e 127 129
e 127 130
e 127 131
e 127 132
e 127 133
e 127 134
e 127 135
e 127 136
e 127 137
e 127 138
e 127 139
e 127 140
e 127 141
e 127 142
e 127 143
e 127 144
e 145 146
e 145 147
e 145 148
e 145 149
e 145 150
e 145 151
e 145 152
e 145 153
e 145 154
e 145 155
e 145 156
e 145 157
e 145 158
e 145 159
e 145 160
e 145 161
e 145 162
e 145 163
e 145 164
e 145 165
e 145 166
e 145 167
e 145 168
e 145 169
e 145 170
e 145 171
e 145 172
e 145 173
e 145 174
e 145 175
e 145 176
e 145 177
e 145 178
e 145 179
e 180 181
e 180 182
e 180 183
e 180 184
e 180 185
e 180 186
e 180 187
e 180 188
e 180 189
e 180 190
e 180 191
e 180 192
e 180 193
e 180 194
e 180 195
e 180 196
e 180 197
e 180 198
e 180 199
e 180 200
e 180 201
e 180 202
e 180 203
e 180 204
e 180 205
e 180 206
e 180 207
e 180 208
e 180 209
e 180 210
e 180 211
e 180 212
e 180 213
e 180 214
e 180 215
e 180 216
e 180 217
e 180 218
e 219 220
e 219 221
e 219 222
e 219 223
e 219 224
e 219 225
e 219 226
e 219 227
e 219 228
e 219 229
e 219 230
e 219 231
e 219 232
e 219 233
e 219 234
e 219 235
e 219 236
e 219 237
e 219 238
e 219 239
e 219 240
e 219 241
e 219 242
e 219 243
e 219 244
e 219 245
e 219 246
e 219 247
e 219 248
e 219 249
e 219 250
e 219 251
e 219 252
e 219 253
e 219 254
e 219 255
e 219 256
e 219 257
e 219 258
e 219 259
e 219 260
e 219 261
e 262 263
e 262 264
e 262 265
e 262 266
e 262 267
e 262 268
e 262 269
e 262 270
e 262 271
e 262 272
e 262 273
e 262 274
e 262 275
e 262 276
e 262 277
e 262 278
e 262 279
e 262 280
e 262 281
e 262 282
e 262 283
e 262 284
e 262 285
e 262 286
e 262 287
e 262 288
e 262 289
e 262 290
e 262 291
e 262 292
e 262 293
e 262 294
e 262 295
e 262 296
e 262 297
e 262 298
e 262 299
e 262 300
e 262 301
e 262 302
e 262 303
e 304 305
e 304 306
e 304 307
e 304 308
e 304 309
e 304 310
e 304 311
e 304 312
e 304 313
e 304 314
e 304 315
e 304 316
e 304 317
e 304 318
e 304 319
e 304 320
e 304 321
e 304 322
e 304 323
e 304 324
e 304 325
e 304 326
e 304 327
e 304 328
e 304 329
e 304 330
e 304 331
e 304 332
e 304 333
e 304 334
e 304 335
e 304 336
e 304 337
e 304 338
e 304 339
e 304 340
e 304 341
e 304 342
e 304 343
e 304 344
e 304 345
e 304 346
e 304 347
e 304 348
e 304 349
e 304 350
e 304 351
e 304 352
e 304 353
e 304 354
e 304 355
e 304 356
e 304 357
e 304 358
e 304 359
e 304 360
e 304 361
e 304 362
e 304 363
e 304 364
e 304 365
e 304 366
e 304 367
e 304 368
e 304 369
e 304 370
e 304 371
e 304 372
e 304 373
e 304 374
e 304 375
e 304 376
e 304 377
e 304 378
e 304 379
e 380 381
e 380 382
e 380 383
e 380 384
e 380 385
e 380 386
e 380 387
e 380 388
e 380 389
e 380 390
e 380 391
e 380 392
e 380 393
e 394 395
e 394 396
e 394 397
e 394 398
e 394 399
e 394 400
e 394 401
e 394 402
e 394 403
e 394 404
e 394 405
e 394 406
e 394 407
e 394 408
e 394 409
e 394 410
e 394 411
e 394 412
e 394 413
e 394 414
e 394 415
e 394 416
e 394 417
e 394 418
e 394 419
e 394 420
e 394 421
e 394 422
e 394 423
e 394 424
e 394 425
e 394 426
e 394 427
e 394 428
e 394 429
e 394 430
e 394 431
e 394 432
e 394 433
e 394 434
e 394 435
e 394 436
e 394 437
e 394 438
e 394 439
e 394 440
e 394 441
e 394 442
e 394 443
e 394 444
e 445 446
e 445 447
e 445 448
e 445 449
e 445 450
e 445 451
e 445 452
e 445 453
e 445 454
e 445 455
e 445 456
e 445 457
e 445 458
e 445 459
e 445 460
e 445 461
e 445 462
e 445 463
e 445 464
e 445 465
e 445 466
e 445 467
e 445 468
e 445 469
e 445 470
e 445 471
e 445 472
e 445 473
e 445 474
e 445 475
e 445 476
e 445 477
e 445 478
e 445 479
e 445 480
e 445 481
e 445 482
e 445 483
e 445 484
e 445 485
e 445 486
e 445 487
e 445 488
e 445 489
e 445 490
e 445 491
e 445 492
e 445 493
e 445 494
e 445 495
e 445 496
e 445 497
e 445 498
e 499 500
e 499 501
e 499 502
e 499 503
e 499 504
e 499 505
e 499 506
e 499 507
e 499 508
e 499 509
e 499 510
e 499 511
e 499 512
e 499 513
e 499 514
e 499 515
e 499 516
e 499 517
e 499 518
e 499 519
e 499 520
e 499 521
e 499 522
e 499 523
e 499 524
e 499 525
e 499 526
e 499 527
e 499 528
e 499 529
e 499 530
e 499 531
e 499 532
e 499 533
e 499 534
e 499 535
e 499 536
e 499 537
e 499 538
e 499 539
e 499 540
e 499 541
e 499 542
e 499 543
e 544 545
e 544 546
e 544 547
e 544 548
e 544 549
e 544 550
e 544 551
e 544 552
e 544 553
e 544 554
e 544 555
e 544 556
e 544 557
e 544 558
e 544 559
e 544 560
e 544 561
e 544 562
e 544 563
e 544 564
e 544 565
e 544 566
e 544 567
e 544 568
e 544 569
e 544 570
e 544 571
e 544 572
e 544 573
e 544 574
e 544 575
e 544 576
e 544 577
e 544 578
e 544 579
e 544 580
e 544 581
e 544 582
e 544 583
e 544 584
e 544 585
e 544 586
e 544 587
e 588 589
e 588 590
e 588 591
e 588 592
e 588 593
e 588 594
e 588 595
e 588 596
e 588 597
e 588 598
e 588 599
e 588 600
e 588 601
e 588 602
e 588 603
e 588 604
e 588 605
e 588 606
e 588 607
e 588 608
e 588 609
e 588 610
e 588 611
e 588 612
e 588 613
e 588 614
e 588 615
e 588 616
e 588 617
e 588 618
e 588 619
e 588 620
e 588 621
e 588 622
e 588 623
e 588 624
e 588 625
e 588 626
e 588 627
e 588 628
e 588 629
e 588 630
e 588 631
e 588 632
e 588 633
e 588 634
e 588 635
e 588 636
e 588 637
e 588 638
e 588 639
e 588 640
e 588 641
e 588 642
e 588 643
e 588 644
e 588 645
e 588 646
e 588 647
e 588 648
e 588 649
e 588 650
e 588 651
e 588 652
e 588 653
e 588 654
e 588 655
e 588 656
e 588 657
e 588 658
e 588 659
e 588 660
e 588 661
e 588 662
e 588 663
e 588 664
e 588 665
e 588 666
e 667 668
e 667 669
e 667 670
e 667 671
e 667 672
e 667 673
e 667 674
e 667 675
e 667 676
e 667 677
e 667 678
e 667 679
e 667 680
e 667 681
e 667 682
e 667 683
e 667 684
e 667 685
e 667 686
e 667 687
e 667 688
e 667 689
e 667 690
e 667 691
e 667 692
e 667 693
e 667 694
e 667 695
e 667 696
e 667 697
e 667 698
e 667 699
e 667 700
e 667 701
e 667 702
e 703 704
e 703 705
e 703 706
e 703 707
e 703 708
e 703 709
e 703 710
e 703 711
e 703 712
e 703 713
e 703 714
e 703 715
e 703 716
e 703 717
e 703 718
e 703 719
e 703 720
e 703 721
e 703 722
e 703 723
e 703 724
e 703 725
e 703 726
e 703 727
e 703 728
e 703 729
e 703 730
e 703 731
e 703 732
e 703 733
e 703 734
e 703 735
e 736 737
e 736 738
e 736 739
e 736 740
e 736 741
e 736 742
e 736 743
e 736 744
e 736 745
e 736 746
e 736 747
e 736 748
e 736 749
e 736 750
e 736 751
e 736 752
e 736 753
e 736 754
e 736 755
e 736 756
e 736 757
e 736 758
e 736 759
e 736 760
e 736 761
e 736 762
e 736 763
e 736 764
e 736 765
e 736 766
e 736 767
e 736 768
e 736 769
e 736 770
e 736 771
e 736 772
e 736 773
e 736 774
e 736 775
e 736 776
e 736 777
e 736 778
e 736 779
e 736 780
e 736 781
e 736 782
e 736 783
e 736 784
e 736 785
e 736 786
e 736 787
e 736 788
e 736 789
e 736 790
e 736 791
e 736 792
e 736 793
e 736 794
e 795 796
e 795 797
e 795 798
e 795 799
e 795 800
e 795 801
e 795 802
e 795 803
e 795 804
e 795 805
e 806 807
e 806 808
e 806 809
e 806 810
e 806 811
e 806 812
e 806 813
e 806 814
e 806 815
e 806 816
e 806 817
e 806 818
e 806 819
e 806 820
e 806 821
e 806 822
e 806 823
e 806 824
e 806 825
e 806 826
e 806 827
e 806 828
e 806 829
e 806 830
e 806 831
e 806 832
e 806 833
e 806 834
e 806 835
e 806 836
e 806 837
e 838 839
e 838 840
e 838 841
e 838 842
e 838 843
e 838 844
e 838 845
e 838 846
e 838 847
e 838 848
e 838 849
e 838 850
e 838 851
e 838 852
e 838 853
e 838 854
e 838 855
e 838 856
e 838 857
e 838 858
e 838 859
e 838 860
e 838 861
e 838 862
e 838 863
e 838 864
e 838 865
e 838 866
e 838 867
e 838 868
e 838 869
e 838 870
e 838 871
e 838 872
e 838 873
e 838 874
e 838 875
e 838 876
e 838 877
e 838 878
e 838 879
e 838 880
e 838 881
e 838 882
e 883 884
e 883 885
e 883 886
e 883 887
e 883 888
e 883 889
e 883 890
e 883 891
e 883 892
e 883 893
e 883 894
e 883 895
e 883 896
e 883 897
e 883 898
e 883 899
e 883 900
e 883 901
e 883 902
e 883 903
e 883 904
e 883 905
e 883 906
e 883 907
e 883 908
e 883 909
e 883 910
e 883 911
e 883 912
e 883 913
e 883 914
e 915 916
e 915 917
e 915 918
e 915 919
e 915 920
e 915 921
e 915 922
e 915 923
e 915 924
e 915 925
e 915 926
e 915 927
e 915 928
e 915 929
e 915 930
e 915 931
e 915 932
e 915 933
e 915 934
e 915 935
e 915 936
e 915 937
e 915 938
e 915 939
e 915 940
e 915 941
e 915 942
e 915 943
e 915 944
e 915 945
e 915 946
e 915 947
e 915 948
e 915 949
e 915 950
e 915 951
e 915 952
e 915 953
e 915 954
e 915 955
e 915 956
e 915 957
e 915 958
e 915 959
e 915 960
e 915 961
e 915 962
e 915 963
e 915 964
e 915 965
e 915 966
e 967 968
e 967 969
e 967 970
e 967 971
e 967 972
e 967 973
e 967 974
e 967 975
e 967 976
e 967 977
e 967 978
e 967 979
e 967 980
e 967 981
e 967 982
e 967 983
e 967 984
e 967 985
e 967 986
e 967 987
e 967 988
e 989 990
e 989 991
e 989 992
e 989 993
e 989 994
e 989 995
e 989 996
e 989 997
e 989 998
e 989 999
e 989 1000
e 989 1001
e 989 1002
e 1003 1004
e 1003 1005
e 1003 1006
e 1003 1007
e 1003 1008
e 1003 1009
e 1003 1010
e 1003 1011
e 1003 1012
e 1003 1013
e 1003 1014
e 1003 1015
e 1003 1016
e 1003 1017
e 1003 1018
e 1003 1019
e 1003 1020
e 1003 1021
e 1003 1022
e 1003 1023
e 1003 1024
e 1003 1025
e 1003 1026
e 1003 1027
e 1003 1028
e 1003 1029
e 1003 1030
e 1003 1031
e 1003 1032
e 1003 1033
e 1003 1034
e 1003 1035
e 1003 1036
e 1003 1037
e 1003 1038
e 1003 1039
e 1003 1040
e 1003 1041
e 1042 1043
e 1042 1044
e 1042 1045
e 1042 1046
e 1042 1047
e 1042 1048
e 1042 1049
e 1042 1050
e 1042 1051
e 1042 1052
e 1042 1053
e 1042 1054
e 1042 1055
e 1042 1056
e 1042 1057
e 1042 1058
e 1042 1059
e 1042 1060
e 1042 1061
e 1042 1062
e 1042 1063
e 1042 1064
e 1042 1065
e 1042 1066
e 1042 1067
e 1042 1068
e 1042 1069
e 1042 1070
e 1042 1071
e 1042 1072
e 1042 1073
e 1042 1074
e 1042 1075
e 1042 1076
e 1042 1077
e 1042 1078
e 1042 1079
e 1042 1080
e 1042 1081
e 1042 1082
e 1042 1083
e 1042 1084
e 1042 1085
e 1042 1086
e 1042 1087
e 1088 1089
e 1088 1090
e 1088 1091
e 1088 1092
e 1088 1093
e 1088 1094
e 1088 1095
e 1088 1096
e 1088 1097
e 1088 1098
e 1088 1099
e 1088 1100
e 1088 1101
e 1088 1102
e 1088 1103
e 1088 1104
e 1088 1105
e 1088 1106
e 1088 1107
e 1088 1108
e 1088 1109
e 1110 1111
e 1110 1112
e 1110 1113
e 1110 1114
e 1110 1115
e 1110 1116
e 1110 1117
e 1110 1118
e 1110 1119
e 1110 1120
e 1110 1121
e 1110 1122
e 1110 1123
e 1110 1124
e 1110 1125
e 1110 1126
e 1110 1127
e 1110 1128
e 1110 1129
e 1110 1130
e 1110 1131
e 1110 1132
e 1110 1133
e 1110 1134
e 1110 1135
e 1110 1136
e 1110 1137
e 1110 1138
e 1110 1139
e 1110 1140
e 1110 1141
e 1110 1142
e 1110 1143
e 1144 1145
e 1144 1146
e 1144 1147
e 1144 1148
e 1144 1149
e 1144 1150
e 1144 1151
e 1144 1152
e 1144 1153
e 1144 1154
e 1144 1155
e 1144 1156
e 1144 1157
e 1144 1158
e 1144 1159
e 1144 1160
e 1144 1161
e 1144 1162
e 1144 1163
e 1144 1164
e 1144 1165
e 1144 1166
e 1144 1167
e 1144 1168
e 1144 1169
e 1144 1170
e 1144 1171
e 1144 1172
e 1144 1173
e 1144 1174
e 1144 1175
e 1144 1176
e 1144 1177
e 1144 1178
e 1144 1179
e 1144 1180
e 1144 1181
e 1144 1182
e 1144 1183
e 1144 1184
e 1144 1185
e 1186 1187
e 1186 1188
e 1186 1189
e 1186 1190
e 1186 1191
e 1186 1192
e 1186 1193
e 1186 1194
e 1186 1195
e 1186 1196
e 1186 1197
e 1186 1198
e 1186 1199
e 1186 1200
e 1186 1201
e 1186 1202
e 1186 1203
e 1186 1204
e 1186 1205
e 1186 1206
e 1186 1207
e 1186 1208
e 1186 1209
e 1186 1210
e 1186 1211
e 1186 1212
e 1186 1213
e 1186 1214
e 1186 1215
e 1186 1216
e 1186 1217
e 1186 1218
e 1186 1219
e 1186 1220
e 1186 1221
e 1186 1222
e 1186 1223
e 1186 1224
e 1186 1225
e 1186 1226
e 1186 1227
e 1186 1228
e 1186 1229
e 1186 1230
e 1186 1231
e 1186 1232
e 1186 1233
e 1186 1234
e 1186 1235
e 1186 1236
e 1186 1237
e 1186 1238
e 1186 1239
e 1186 1240
e 1186 1241
e 1186 1242
e 1186 1243
e 1186 1244
e 1186 1245
e 1186 1246
e 1186 1247
e 1186 1248
e 1186 1249
e 1186 1250
e 1186 1251
e 1186 1252
e 1186 1253
e 1186 1254
e 1186 1255
e 1186 1256
e 1186 1257
e 1186 1258
e 1186 1259
e 1186 1260
e 1186 1261
e 1262 1263
e 1262 1264
e 1262 1265
e 1262 1266
e 1262 1267
e 1262 1268
e 1262 1269
e 1262 1270
e 1262 1271
e 1262 1272
e 1262 1273
e 1262 1274
e 1262 1275
e 1262 1276
e 1262 1277
e 1262 1278
e 1262 1279
e 1262 1280
e 1262 1281
e 1262 1282
e 1262 1283
e 1262 1284
e 1262 1285
e 1262 1286
e 1262 1287
e 1262 1288
e 1262 1289
e 1262 1290
e 1262 1291
e 1262 1292
e 1262 1293
e 1262 1294
e 1262 1295
e 1262 1296
e 1262 1297
e 1298 1299
e 1298 1300
e 1298 1301
e 1298 1302
e 1298 1303
e 1298 1304
e 1298 1305
e 1298 1306
e 1298 1307
e 1298 1308
e 1298 1309
e 1298 1310
e 1298 1311
e 1298 1312
e 1298 1313
e 1298 1314
e 1298 1315
e 1298 1316
e 1298 1317
e 1298 1318
e 1298 1319
e 1298 1320
e 1298 1321
e 1298 1322
e 1298 1323
e 1298 1324
e 1298 1325
e 1298 1326
e 1298 1327
e 1298 1328
e 1298 1329
e 1298 1330
e 1298 1331
e 1298 1332
e 1298 1333
e 1298 1334
e 1298 1335
e 1298 1336
e 1298 1337
e 1298 1338
e 1298 1339
e 1298 1340
e 1298 1341
e 1298 1342
e 1298 1343
e 1298 1344
e 1298 1345
e 1298 1346
e 1298 1347
e 1298 1348
e 1298 1349
e 1298 1350
e 1298 1351
e 1298 1352
e 1298 1353
e 1298 1354
e 1298 1355
e 1298 1356
e 1298 1357
e 1298 1358
e 1298 1359
e 1298 1360
e 1298 1361
e 1298 1362
e 1298 1363
e 1298 1364
e 1298 1365
e 1298 1366
e 1298 1367
e 1298 1368
e 1298 1369
e 1370 1371
e 1370 1372
e 1370 1373
e 1370 1374
e 1370 1375
e 1370 1376
e 1370 1377
e 1370 1378
e 1370 1379
e 1370 1380
e 1370 1381
e 1370 1382
e 1370 1383
e 1370 1384
e 1370 1385
e 1370 1386
e 1370 1387
e 1370 1388
e 1370 1389
e 1370 1390
e 1370 1391
e 1370 1392
e 1370 1393
e 1370 1394
e 1370 1395
e 1370 1396
e 1370 1397
e 1370 1398
e 1370 1399
e 1370 1400
e 1370 1401
e 1402 1403
e 1402 1404
e 1402 1405
e 1402 1406
e 1402 1407
e 1402 1408
e 1402 1409
e 1402 1410
e 1402 1411
e 1402 1412
e 1402 1413
e 1402 1414
e 1402 1415
e 1402 1416
e 1402 1417
e 1402 1418
e 1402 1419
e 1402 1420
e 1402 1421
e 1402 1422
e 1402 1423
e 1402 1424
e 1402 1425
e 1402 1426
e 1402 1427
e 1402 1428
e 1402 1429
e 1402 1430
e 1402 1431
e 1402 1432
e 1402 1433
e 1402 1434
e 1402 1435
e 1402 1436
e 1402 1437
e 1402 1438
e 1402 1439
e 1402 1440
e 1402 1441
e 1402 1442
e 1402 1443
e 1444 1445
e 1444 1446
e 1444 1447
e 1444 1448
e 1444 1449
e 1444 1450
e 1444 1451
e 1444 1452
e 1444 1453
e 1444 1454
e 1444 1455
e 1444 1456
e 1444 1457
e 1444 1458
e 1444 1459
e 1444 1460
e 1444 1461
e 1444 1462
e 1444 1463
e 1444 1464
e 1444 1465
e 1444 1466
e 1444 1467
e 1444 1468
e 1444 1469
e 1444 1470
e 1444 1471
e 1444 1472
e 1444 1473
e 1444 1474
e 1444 1475
e 1444 1476
e 1444 1477
e 1444 1478
e 1444 1479
e 1444 1480
e 1444 1481
e 1444 1482
e 1444 1483
e 1444 1484
e 1444 1485
e 1444 1486
e 1444 1487
e 1444 1488
e 1444 1489
e 1444 1490
e 1444 1491
e 1444 1492
e 1444 1493
e 1444 1494
e 1444 1495
e 1444 1496
e 1497 1498
e 1497 1499
e 1497 1500
e 1497 1501
e 1497 1502
e 1497 1503
e 1497 1504
e 1497 1505
e 1497 1506
e 1497 1507
e 1497 1508
e 1497 1509
e 1497 1510
e 1497 1511
e 1497 1512
e 1497 1513
e 1497 1514
e 1497 1515
e 1497 1516
e 1497 1517
e 1497 1518
e 1497 1519
e 1497 1520
e 1497 1521
e 1497 1522
e 1497 1523
e 1497 1524
e 1497 1525
e 1497 1526
e 1497 1527
e 1497 1528
e 1497 1529
e 1497 1530
e 1497 1531
e 1497 1532
e 1497 1533
e 1497 1534
e 1497 1535
e 1497 1536
e 1497 1537
e 1497 1538
e 1497 1539
e 1497 1540
e 1497 1541
e 1497 1542
e 1497 1543
e 1497 1544
e 1497 1545
e 1497 1546
e 1497 1547
e 1497 1548
e 1497 1549
e 1497 1550
e 1497 1551
e 1497 1552
e 1497 1553
e 1497 1554
e 1497 1555
e 1497 1556
e 1497 1557
e 1497 1558
e 1497 1559
e 1497 1560
e 1497 1561
e 1497 1562
e 1497 1563
e 1497 1564
e 1565 1566
e 1565 1567
e 1565 1568
e 1565 1569
e 1565 1570
e 1565 1571
e 1565 1572
e 1565 1573
e 1565 1574
e 1565 1575
e 1565 1576
e 1565 1577
e 1565 1578
e 1565 1579
e 1565 1580
e 1565 1581
e 1565 1582
e 1565 1583
e 1584 1585
e 1584 1586
e 1584 1587
e 1584 1588
e 1584 1589
e 1584 1590
e 1584 1591
e 1584 1592
e 1584 1593
e 1584 1594
e 1584 1595
e 1584 1596
e 1584 1597
e 1584 1598
e 1584 1599
e 1584 1600
e 1584 1601
e 1584 1602
e 1584 1603
e 1584 1604
e 1584 1605
e 1584 1606
e 1584 1607
e 1584 1608
e 1584 1609
e 1584 1610
e 1584 1611
e 1584 1612
e 1584 1613
e 1584 1614
e 1584 1615
e 1584 1616
e 1584 1617
e 1584 1618
e 1584 1619
e 1584 1620
e 1584 1621
e 1584 1622
e 1584 1623
e 1584 1624
e 1625 1626
e 1625 1627
e 1625 1628
e 1625 1629
e 1625 1630
e 1625 1631
e 1625 1632
e 1625 1633
e 1625 1634
e 1625 1635
e 1625 1636
e 1625 1637
e 1625 1638
e 1625 1639
e 1625 1640
e 1625 1641
e 1625 1642
e 1625 1643
e 1625 1644
e 1625 1645
e 1625 1646
e 1625 1647
e 1625 1648
e 1625 1649
e 1625 1650
e 1625 1651
e 1625 1652
e 1625 1653
e 1625 1654
e 1625 1655
e 1625 1656
e 1625 1657
e 1625 1658
e 1625 1659
e 1625 1660
e 1625 1661
e 1625 1662
e 1625 1663
e 1625 1664
e 1625 1665
e 1625 1666
e 1625 1667
e 1625 1668
e 1625 1669
e 1625 1670
e 1625 1671
e 1625 1672
e 1625 1673
e 1625 1674
e 1625 1675
e 1625 1676
e 1677 1678
e 1677 1679
e 1677 1680
e 1677 1681
e 1677 1682
e 1677 1683
e 1677 1684
e 1677 1685
e 1677 1686
e 1677 1687
e 1677 1688
e 1677 1689
e 1677 1690
e 1677 1691
e 1677 1692
e 1677 1693
e 1677 1694
e 1677 1695
e 1677 1696
e 1677 1697
e 1677 1698
e 1677 1699
e 1677 1700
e 1677 1701
e 1677 1702
e 1677 1703
e 1677 1704
e 1677 1705
e 1677 1706
e 1677 1707
e 1677 1708
e 1677 1709
e 1677 1710
e 1677 1711
e 1677 1712
e 1677 1713
e 1677 1714
e 1677 1715
e 1677 1716
e 1677 1717
e 1677 1718
e 1677 1719
e 1677 1720
e 1677 1721
e 1677 1722
e 1677 1723
e 1724 1725
e 1724 1726
e 1724 1727
e 1724 1728
e 1724 1729
e 1724 1730
e 1724 1731
e 1724 1732
e 1724 1733
e 1724 1734
e 1724 1735
e 1724 1736
e 1724 1737
e 1724 1738
e 1724 1739
e 1724 1740
e 1724 1741
e 1724 1742
e 1724 1743
e 1724 1744
e 1724 1745
e 1724 1746
e 1724 1747
e 1724 1748
e 1724 1749
e 1724 1750
e 1724 1751
e 1724 1752
e 1724 1753
e 1724 1754
e 1724 1755
e 1724 1756
e 1724 1757
e 1724 1758
e 1724 1759
e 1724 1760
e 1724 1761
e 1724 1762
e 1724 1763
e 1724 1764
e 1724 1765
e 1724 1766
e 1724 1767
e 1724 1768
e 1724 1769
e 1770 1771
e 1770 1772
e 1770 1773
e 1770 1774
e 1770 1775
e 1770 1776
e 1770 1777
e 1770 1778
e 1770 1779
e 1770 1780
e 1770 1781
e 1770 1782
e 1770 1783
e 1770 1784
e 1770 1785
e 1770 1786
e 1770 1787
e 1770 1788
e 1770 1789
e 1770 1790
e 1770 1791
e 1770 1792
e 1770 1793
e 1770 1794
e 1770 1795
e 1770 1796
e 1770 1797
e 1770 1798
e 1770 1799
e 1800 1801
e 1800 1802
e 1800 1803
e 1800 1804
e 1800 1805
e 1800 1806
e 1800 1807
e 1800 1808
e 1800 1809
e 1800 1810
e 1800 1811
e 1800 1812
e 1800 1813
e 1800 1814
e 1800 1815
e 1800 1816
e 1800 1817
e 1800 1818
e 1800 1819
e 1800 1820
e 1800 1821
e 1800 1822
e 1800 1823
e 1800 1824
e 1800 1825
e 1800 1826
e 1800 1827
e 1800 1828
e 1800 1829
e 1800 1830
e 1800 1831
e 1800 1832
e 1800 1833
e 1800 1834
e 1800 1835
e 1800 1836
e 1800 1837
e 1800 1838
e 1800 1839
e 1800 1840
e 1800 1841
e 1800 1842
e 1800 1843
e 1800 1844
e 1800 1845
e 1800 1846
e 1800 1847
e 1800 1848
e 1800 1849
e 1800 1850
e 1800 1851
e 1800 1852
e 1800 1853
e 1800 1854
e 1800 1855
e 1800 1856
e 1800 1857
e 1800 1858
e 1859 1860
e 1859 1861
e 1859 1862
e 1859 1863
e 1859 1864
e 1859 1865
e 1859 1866
e 1859 1867
e 1859 1868
e 1859 1869
e 1859 1870
e 1859 1871
e 1859 1872
e 1859 1873
e 1859 1874
e 1859 1875
e 1859 1876
e 1859 1877
e 1859 1878
e 1859 1879
e 1859 1880
e 1859 1881
e 1859 1882
e 1859 1883
e 1859 1884
e 1859 1885
e 1859 1886
e 1859 1887
e 1859 1888
e 1859 1889
e 1859 1890
e 1859 1891
e 1859 1892
e 1859 1893
e 1859 1894
e 1859 1895
e 1859 1896
e 1859 1897
e 1859 1898
e 1859 1899
e 1859 1900
e 1859 1901
e 1859 1902
e 1859 1903
e 1859 1904
e 1859 1905
e 1859 1906
e 1859 1907
e 1859 1908
e 1859 1909
e 1859 1910
e 1859 1911
e 1859 1912
e 1859 1913
e 1859 1914
e 1859 1915
e 1859 1916
e 1859 1917
e 1859 1918
e 1859 1919
e 1859 1920
e 1859 1921
e 1859 1922
e 1859 1923
e 1859 1924
e 1859 1925
e 1859 1926
e 1859 1927
e 1859 1928
e 1859 1929
e 1859 1930
e 1859 1931
e 1859 1932
e 1859 1933
e 1859 1934
e 1859 1935
e 1859 1936
e 1859 1937
e 1938 1939
e 1938 1940
e 1938 1941
e 1938 1942
e 1938 1943
e 1938 1944
e 1938 1945
e 1938 1946
e 1938 1947
e 1938 1948
e 1938 1949
e 1938 1950
e 1938 1951
e 1938 1952
e 1938 1953
e 1938 1954
e 1938 1955
e 1938 1956
e 1938 1957
e 1938 1958
e 1938 1959
e 1938 1960
e 1938 1961
e 1938 1962
e 1938 1963
e 1938 1964
e 1938 1965
e 1938 1966
e 1938 1967
e 1938 1968
e 1938 1969
e 1938 1970
e 1938 1971
e 1938 1972
e 1938 1973
e 1938 1974
e 1938 1975
e 1938 1976
e 1938 1977
e 1938 1978
e 1938 1979
e 1938 1980
e 1938 1981
e 1938 1982
e 1938 1983
e 1938 1984
e 1938 1985
e 1938 1986
e 1938 1987
e 1938 1988
e 1938 1989
e 1938 1990
e 1938 1991
e 1938 1992
e 1938 1993
e 1938 1994
e 1938 1995
e 1938 1996
e 1938 1997
e 1938 1998
e 1938 1999
e 1938 2000
e 1938 2001
e 1938 2002
e 1938 2003
e 1938 2004
e 1938 2005
e 1938 2006
e 1938 2007
e 1938 2008
e 1938 2009
e 1938 2010
e 1938 2011
e 1938 2012
e 2013 2014
e 2013 2015
e 2013 2016
e 2013 2017
e 2013 2018
e 2013 2019
e 2013 2020
e 2013 2021
e 2013 2022
e 2013 2023
e 2013 2024
e 2013 2025
e 2013 2026
e 2013 2027
e 2013 2028
e 2013 2029
e 2013 2030
e 2013 2031
e 2013 2032
e 2013 2033
e 2013 2034
e 2013 2035
e 2013 2036
e 2013 2037
e 2013 2038
e 2013 2039
e 2013 2040
e 2013 2041
e 2013 2042
e 2013 2043
e 2013 2044
e 2013 2045
e 2013 2046
e 2013 2047
e 2013 2048
e 2013 2049
e 2013 2050
e 2013 2051
e 2013 2052
e 2013 2053
e 2013 2054
e 2013 2055
e 2013 2056
e 2013 2057
e 2013 2058
e 2013 2059
e 2013 2060
e 2013 2061
e 2013 2062
e 2013 2063
e 2013 2064
e 2013 2065
e 2013 2066
e 2013 2067
e 2013 2068
e 2013 2069
e 2013 2070
e 2013 2071
e 2013 2072
e 2013 2073
e 2013 2074
e 2013 2075
e 2013 2076
e 2013 2077
e 2013 2078
e 2013 2079
e 2013 2080
e 2013 2081
e 2013 2082
e 2013 2083
e 2013 2084
e 2013 2085
e 2013 2086
e 2087 2088
e 2087 2089
e 2087 2090
e 2087 2091
e 2087 2092
e 2087 2093
e 2087 2094
e 2087 2095
e 2087 2096
e 2087 2097
e 2087 2098
e 2087 2099
e 2087 2100
e 2087 2101
e 2087 2102
e 2087 2103
e 2087 2104
e 2087 2105
e 2087 2106
e 2087 2107
e 2087 2108
e 2087 2109
e 2087 2110
e 2087 2111
e 2087 2112
e 2087 2113
e 2087 2114
e 2087 2115
e 2087 2116
e 2087 2117
e 2087 2118
e 2087 2119
e 2087 2120
e 2087 2121
e 2087 2122
e 2087 2123
e 2087 2124
e 2087 2125
e 2087 2126
e 2087 2127
e 2087 2128
e 2087 2129
e 2087 2130
e 2087 2131
e 2087 2132
e 2087 2133
e 2087 2134
e 2087 2135
e 2087 2136
e 2087 2137
e 2087 2138
e 2087 2139
e 2087 2140
e 2087 2141
e 2087 2142
e 2087 2143
e 2087 2144
e 2087 2145
e 2087 2146
e 2087 2147
e 2087 2148
e 2087 2149
e 2087 2150
e 2087 2151
e 2087 2152
e 2087 2153
e 2087 2154
e 2087 2155
e 2087 2156
e 2087 2157
e 2087 2158
e 2087 2159
e 2160 2161
e 2160 2162
e 2160 2163
e 2160 2164
e 2160 2165
e 2160 2166
e 2160 2167
e 2160 2168
e 2160 2169
e 2160 2170
e 2160 2171
e 2160 2172
e 2160 2173
e 2160 2174
e 2160 2175
e 2160 2176
e 2160 2177
e 2160 2178
e 2160 2179
e 2160 2180
e 2160 2181
e 2160 2182
e 2160 2183
e 2160 2184
e 2160 2185
e 2160 2186
e 2160 2187
e 2160 2188
e 2160 2189
e 2160 2190
e 2160 2191
e 2192 2193
e 2192 2194
e 2192 2195
e 2192 2196
e 2192 2197
e 2192 2198
e 2192 2199
e 2192 2200
e 2192 2201
e 2192 2202
e 2192 2203
e 2192 2204
e 2192 2205
e 2192 2206
e 2192 2207
e 2192 2208
e 2192 2209
e 2192 2210
e 2192 2211
e 2192 2212
e 2192 2213
e 2192 2214
e 2192 2215
e 2192 2216
e 2192 2217
e 2192 2218
e 2192 2219
e 2192 2220
e 2192 2221
e 2192 2222
e 2192 2223
e 2192 2224
e 2192 2225
e 2226 2227
e 2226 2228
e 2226 2229
e 2226 2230
e 2226 2231
e 2226 2232
e 2226 2233
e 2226 2234
e 2226 2235
e 2226 2236
e 2226 2237
e 2226 2238
e 2226 2239
e 2226 2240
e 2226 2241
e 2226 2242
e 2226 2243
e 2226 2244
e 2226 2245
e 2226 2246
e 2226 2247
e 2226 2248
e 2226 2249
e 2226 2250
e 2226 2251
e 2226 2252
e 2226 2253
e 2226 2254
e 2226 2255
e 2226 2256
e 2226 2257
e 2226 2258
e 2226 2259
e 2226 2260
e 2226 2261
e 2226 2262
e 2226 2263
e 2226 2264
e 2226 2265
e 2226 2266
e 2226 2267
e 2226 2268
e 2226 2269
e 2226 2270
e 2226 2271
e 2226 2272
e 2226 2273
e 2226 2274
e 2226 2275
e 2226 2276
e 2226 2277
e 2226 2278
e 2226 2279
e 2226 2280
e 2226 2281
e 2226 2282
e 2226 2283
e 2226 2284
e 2226 2285
e 2226 2286
e 2226 2287
e 2226 2288
e 2226 2289
e 2226 2290
e 2226 2291
e 2226 2292
e 2226 2293
e 2226 2294
e 2226 2295
e 2226 2296
e 2226 2297
e 2226 2298
e 2226 2299
e 2226 2300
e 2226 2301
e 2302 2303
e 2302 2304
e 2302 2305
e 2302 2306
e 2302 2307
e 2302 2308
e 2302 2309
e 2302 2310
e 2302 2311
e 2302 2312
e 2302 2313
e 2302 2314
e 2302 2315
e 2302 2316
e 2302 2317
e 2302 2318
e 2302 2319
e 2302 2320
e 2302 2321
e 2302 2322
e 2302 2323
e 2302 2324
e 2302 2325
e 2302 2326
e 2302 2327
e 2302 2328
e 2302 2329
e 2302 2330
e 2302 2331
e 2302 2332
e 2302 2333
e 2302 2334
e 2302 2335
e 2302 2336
e 2302 2337
e 2302 2338
e 2302 2339
e 2302 2340
e 2302 2341
e 2302 2342
e 2302 2343
e 2302 2344
e 2302 2345
e 2302 2346
e 2302 2347
e 2302 2348
e 2302 2349
e 2302 2350
e 2302 2351
e 2352 2353
e 2352 2354
e 2352 2355
e 2352 2356
e 2352 2357
e 2352 2358
e 2352 2359
e 2352 2360
e 2352 2361
e 2352 2362
e 2352 2363
e 2352 2364
e 2352 2365
e 2352 2366
e 2352 2367
e 2352 2368
e 2352 2369
e 2352 2370
e 2352 2371
e 2352 2372
e 2352 2373
e 2352 2374
e 2375 2376
e 2375 2377
e 2375 2378
e 2375 2379
e 2375 2380
e 2375 2381
e 2375 2382
e 2375 2383
e 2375 2384
e 2375 2385
e 2375 2386
e 2375 2387
e 2375 2388
e 2375 2389
e 2375 2390
e 2375 2391
e 2375 2392
e 2375 2393
e 2375 2394
e 2375 2395
e 2375 2396
e 2375 2397
e 2375 2398
e 2375 2399
e 2375 2400
e 2375 2401
e 2375 2402
e 2375 2403
e 2375 2404
e 2375 2405
e 2375 2406
e 2375 2407
e 2375 2408
e 2375 2409
e 2375 2410
e 2375 2411
e 2375 2412
e 2375 2413
e 2375 2414
e 2375 2415
e 2375 2416
e 2375 2417
e 2375 2418
e 2375 2419
e 2375 2420
e 2375 2421
e 2375 2422
e 2375 2423
e 2375 2424
e 2375 2425
e 2375 2426
e 2375 2427
e 2375 2428
e 2375 2429
e 2375 2430
e 2375 2431
e 2375 2432
e 2375 2433
e 2375 2434
e 2375 2435
e 2375 2436
e 2375 2437
e 2375 2438
e 2375 2439
e 2375 2440
e 2375 2441
e 2375 2442
e 2375 2443
e 2375 2444
e 2375 2445
e 2375 2446
e 2375 2447
e 2448 2449
e 2448 2450
e 2448 2451
e 2448 2452
e 2448 2453
e 2448 2454
e 2448 2455
e 2448 2456
e 2448 2457
e 2448 2458
e 2448 2459
e 2448 2460
e 2448 2461
e 2448 2462
e 2448 2463
e 2448 2464
e 2448 2465
e 2448 2466
e 2448 2467
e 2448 2468
e 2448 2469
e 2448 2470
e 2448 2471
e 2448 2472
e 2448 2473
e 2448 2474
e 2448 2475
e 2448 2476
e 2448 2477
e 2448 2478
e 2448 2479
e 2448 2480
e 2448 2481
e 2448 2482
e 2448 2483
e 2448 2484
e 2448 2485
e 2486 2487
e 2486 2488
e 2486 2489
e 2486 2490
e 2486 2491
e 2486 2492
e 2486 2493
e 2486 2494
e 2486 2495
e 2486 2496
e 2486 2497
e 2486 2498
e 2486 2499
e 2486 2500
e 2486 2501
e 2486 2502
e 2486 2503
e 2486 2504
e 2486 2505
e 2486 2506
e 2486 2507
e 2486 2508
e 2486 2509
e 2486 2510
e 2486 2511
e 2486 2512
e 2486 2513
e 2486 2514
e 2486 2515
e 2486 2516
e 2486 2517
e 2486 2518
e 2486 2519
e 2486 2520
e 2486 2521
e 2486 2522
e 2486 2523
e 2524 2525
e 2524 2526
e 2524 2527
e 2524 2528
e 2524 2529
e 2524 2530
e 2524 2531
e 2524 2532
e 2524 2533
e 2524 2534
e 2524 2535
e 2524 2536
e 2524 2537
e 2524 2538
e 2524 2539
e 2524 2540
e 2524 2541
e 2524 2542
e 2524 2543
e 2524 2544
e 2524 2545
e 2524 2546
e 2524 2547
e 2524 2548
e 2524 2549
e 2524 2550
e 2524 2551
e 2524 2552
e 2524 2553
e 2524 2554
e 2524 2555
e 2524 2556
e 2524 2557
e 2524 2558
e 2524 2559
e 2524 2560
e 2524 2561
e 2524 2562
e 2524 2563
e 2524 2564
e 2524 2565
e 2566 2567
e 2566 2568
e 2566 2569
e 2566 2570
e 2566 2571
e 2566 2572
e 2566 2573
e 2566 2574
e 2566 2575
e 2566 2576
e 2566 2577
e 2566 2578
e 2566 2579
e 2566 2580
e 2566 2581
e 2566 2582
e 2566 2583
e 2566 2584
e 2566 2585
e 2566 2586
e 2566 2587
e 2566 2588
e 2566 2589
e 2566 2590
e 2566 2591
e 2566 2592
e 2566 2593
e 2566 2594
e 2566 2595
e 2566 2596
e 2566 2597
e 2566 2598
e 2566 2599
e 2566 2600
e 2566 2601
e 2566 2602
e 2566 2603
e 2566 2604
e 2566 2605
e 2566 2606
e 2566 2607
e 2566 2608
e 2566 2609
e 2566 2610
e 2566 2611
e 2566 2612
e 2566 2613
e 2566 2614
e 2566 2615
e 2566 2616
e 2566 2617
e 2566 2618
e 2566 2619
e 2566 2620
e 2566 2621
e 2566 2622
e 2566 2623
e 2566 2624
e 2566 2625
e 2566 2626
e 2566 2627
e 2566 2628
e 2629 2630
e 2629 2631
e 2629 2632
e 2629 2633
e 2629 2634
e 2629 2635
e 2629 2636
e 2629 2637
e 2629 2638
e 2629 2639
e 2629 2640
e 2629 2641
e 2629 2642
e 2629 2643
e 2629 2644
e 2629 2645
e 2629 2646
e 2629 2647
e 2629 2648
e 2629 2649
e 2629 2650
e 2629 2651
e 2629 2652
e 2629 2653
e 2629 2654
e 2629 2655
e 2629 2656
e 2629 2657
e 2629 2658
e 2629 2659
e 2629 2660
e 2629 2661
e 2629 2662
e 2629 2663
e 2629 2664
e 2629 2665
e 2629 2666
e 2629 2667
e 2629 2668
e 2629 2669
e 2629 2670
e 2629 2671
e 2629 2672
e 2629 2673
e 2629 2674
e 2629 2675
e 2629 2676
e 2629 2677
e 2629 2678
e 2629 2679
e 2629 2680
e 2629 2681
e 2629 2682
e 2629 2683
e 2629 2684
e 2629 2685
e 2629 2686
e 2629 2687
e 2629 2688
e 2629 2689
e 2629 2690
e 2629 2691
e 2629 2692
e 2629 2693
e 2629 2694
e 2629 2695
e 2629 2696
e 2629 2697
e 2629 2698
e 2629 2699
e 2629 2700
e 2629 2701
e 2629 2702
e 2703 2704
e 2703 2705
e 2703 2706
e 2703 2707
e 2703 2708
e 2703 2709
e 2703 2710
e 2703 2711
e 2703 2712
e 2703 2713
e 2703 2714
e 2703 2715
e 2703 2716
e 2703 2717
e 2703 2718
e 2703 2719
e 2703 2720
e 2703 2721
e 2703 2722
e 2703 2723
e 2703 2724
e 2703 2725
e 2703 2726
e 2703 2727
e 2703 2728
e 2703 2729
e 2703 2730
e 2703 2731
e 2703 2732
e 2703 2733
e 2703 2734
e 2703 2735
e 2703 2736
e 2703 2737
e 2703 2738
e 2703 2739
e 2703 2740
e 2703 2741
e 2703 2742
e 2703 2743
e 2703 2744
e 2703 2745
e 2703 2746
e 2703 2747
e 2703 2748
e 2703 2749
e 2703 2750
e 2703 2751
e 2703 2752
e 2703 2753
e 2703 2754
e 2703 2755
e 2703 2756
e 2703 2757
e 2703 2758
e 2703 2759
e 2703 2760
e 2703 2761
e 2703 2762
e 2703 2763
e 2703 2764
